515157
481117
1035
479591
4668
655617
956532
442998
403523
315874
391182
500892
437859
746785
395676
755334
383557
929625
122143
894440
778790
86176
996037
931077
280404
59612
960
149532
807061
484735
93874
980018
843686
477664
729604
98745
237473
792631
399510
896986
323448
131637
498384
458724
541533
915262
3287
643792
86020
209476
454300
959024
784896
846017
384910
139956
553930
622480
785392
585241
671329
808553
858501
935023
956043
138487
263335
653125
752441
283160
506807
906995
115464
641457
890286
702019
471204
274282
816594
819260
671303
823629
150149
399245
141151
888247
131511
135955
733134
943928
687164
756103
736523
699725
349625
363079
578789
622839
136183
277311
